\ENCODING=ISO-8859-1
\Problem name: IloCplex

Minimize
 obj1: v.1 + v.2 + v.3 + v.4 + v.5 + v.6 + v.7 + v.8 + v.9 + v.10 + v.11 + v.12
       + v.13 + v.14 + v.15 + 24 a.1 + 8 a.2 + 18 a.7 + 26 a.13
Subject To
 c1:   z1.11  = 1
 c2:   z1.3  = 1
 c3:   z1.4  = 1
 c4:   z1.5  = 1
 c5:   z1.6  = 1
 c6:   z1.8  = 1
 c7:   z1.9  = 1
 c8:   z1.10  = 1
 c9:   z1.12  = 1
 c10:  z1.14  = 1
 c11:  z1.15  = 1
 c12:  x.0.1 + x.0.2 + x.0.3 + x.0.4 + x.0.5 + x.0.6 + x.0.7 + x.0.8 + x.0.9
       + x.0.10 + x.0.11 + x.0.12 + x.0.13 + x.0.14 + x.0.15  = 1
 c13:  x.0.1 + x.2.1 + x.3.1 + x.4.1 + x.5.1 + x.6.1 + x.7.1 + x.8.1 + x.9.1
       + x.10.1 + x.11.1 + x.12.1 + x.13.1 + x.14.1 + x.15.1 - z1.1  = 0
 c14:  x.0.2 + x.1.2 + x.3.2 + x.4.2 + x.5.2 + x.6.2 + x.7.2 + x.8.2 + x.9.2
       + x.10.2 + x.11.2 + x.12.2 + x.13.2 + x.14.2 + x.15.2 - z1.2  = 0
 c15:  - z1.3 + x.0.3 + x.1.3 + x.2.3 + x.4.3 + x.5.3 + x.6.3 + x.7.3 + x.8.3
       + x.9.3 + x.10.3 + x.11.3 + x.12.3 + x.13.3 + x.14.3 + x.15.3  = 0
 c16:  - z1.4 + x.0.4 + x.1.4 + x.2.4 + x.3.4 + x.5.4 + x.6.4 + x.7.4 + x.8.4
       + x.9.4 + x.10.4 + x.11.4 + x.12.4 + x.13.4 + x.14.4 + x.15.4  = 0
 c17:  - z1.5 + x.0.5 + x.1.5 + x.2.5 + x.3.5 + x.4.5 + x.6.5 + x.7.5 + x.8.5
       + x.9.5 + x.10.5 + x.11.5 + x.12.5 + x.13.5 + x.14.5 + x.15.5  = 0
 c18:  - z1.6 + x.0.6 + x.1.6 + x.2.6 + x.3.6 + x.4.6 + x.5.6 + x.7.6 + x.8.6
       + x.9.6 + x.10.6 + x.11.6 + x.12.6 + x.13.6 + x.14.6 + x.15.6  = 0
 c19:  x.0.7 + x.1.7 + x.2.7 + x.3.7 + x.4.7 + x.5.7 + x.6.7 + x.8.7 + x.9.7
       + x.10.7 + x.11.7 + x.12.7 + x.13.7 + x.14.7 + x.15.7 - z1.7  = 0
 c20:  - z1.8 + x.0.8 + x.1.8 + x.2.8 + x.3.8 + x.4.8 + x.5.8 + x.6.8 + x.7.8
       + x.9.8 + x.10.8 + x.11.8 + x.12.8 + x.13.8 + x.14.8 + x.15.8  = 0
 c21:  - z1.9 + x.0.9 + x.1.9 + x.2.9 + x.3.9 + x.4.9 + x.5.9 + x.6.9 + x.7.9
       + x.8.9 + x.10.9 + x.11.9 + x.12.9 + x.13.9 + x.14.9 + x.15.9  = 0
 c22:  - z1.10 + x.0.10 + x.1.10 + x.2.10 + x.3.10 + x.4.10 + x.5.10 + x.6.10
       + x.7.10 + x.8.10 + x.9.10 + x.11.10 + x.12.10 + x.13.10 + x.14.10
       + x.15.10  = 0
 c23:  - z1.11 + x.0.11 + x.1.11 + x.2.11 + x.3.11 + x.4.11 + x.5.11 + x.6.11
       + x.7.11 + x.8.11 + x.9.11 + x.10.11 + x.12.11 + x.13.11 + x.14.11
       + x.15.11  = 0
 c24:  - z1.12 + x.0.12 + x.1.12 + x.2.12 + x.3.12 + x.4.12 + x.5.12 + x.6.12
       + x.7.12 + x.8.12 + x.9.12 + x.10.12 + x.11.12 + x.13.12 + x.14.12
       + x.15.12  = 0
 c25:  x.0.13 + x.1.13 + x.2.13 + x.3.13 + x.4.13 + x.5.13 + x.6.13 + x.7.13
       + x.8.13 + x.9.13 + x.10.13 + x.11.13 + x.12.13 + x.14.13 + x.15.13
       - z1.13  = 0
 c26:  - z1.14 + x.0.14 + x.1.14 + x.2.14 + x.3.14 + x.4.14 + x.5.14 + x.6.14
       + x.7.14 + x.8.14 + x.9.14 + x.10.14 + x.11.14 + x.12.14 + x.13.14
       + x.15.14  = 0
 c27:  - z1.15 + x.0.15 + x.1.15 + x.2.15 + x.3.15 + x.4.15 + x.5.15 + x.6.15
       + x.7.15 + x.8.15 + x.9.15 + x.10.15 + x.11.15 + x.12.15 + x.13.15
       + x.14.15  = 0
 c28:  x.0.11 + x.1.11 + x.2.11 + x.3.11 + x.4.11 + x.5.11 + x.6.11 + x.7.11
       + x.8.11 + x.9.11 + x.10.11 + x.12.11 + x.13.11 + x.14.11 + x.15.11  = 1
 c29:  x.0.3 + x.1.3 + x.2.3 + x.4.3 + x.5.3 + x.6.3 + x.7.3 + x.8.3 + x.9.3
       + x.10.3 + x.11.3 + x.12.3 + x.13.3 + x.14.3 + x.15.3  = 1
 c30:  x.0.4 + x.1.4 + x.2.4 + x.3.4 + x.5.4 + x.6.4 + x.7.4 + x.8.4 + x.9.4
       + x.10.4 + x.11.4 + x.12.4 + x.13.4 + x.14.4 + x.15.4  = 1
 c31:  x.0.5 + x.1.5 + x.2.5 + x.3.5 + x.4.5 + x.6.5 + x.7.5 + x.8.5 + x.9.5
       + x.10.5 + x.11.5 + x.12.5 + x.13.5 + x.14.5 + x.15.5  = 1
 c32:  x.0.6 + x.1.6 + x.2.6 + x.3.6 + x.4.6 + x.5.6 + x.7.6 + x.8.6 + x.9.6
       + x.10.6 + x.11.6 + x.12.6 + x.13.6 + x.14.6 + x.15.6  = 1
 c33:  x.0.8 + x.1.8 + x.2.8 + x.3.8 + x.4.8 + x.5.8 + x.6.8 + x.7.8 + x.9.8
       + x.10.8 + x.11.8 + x.12.8 + x.13.8 + x.14.8 + x.15.8  = 1
 c34:  x.0.9 + x.1.9 + x.2.9 + x.3.9 + x.4.9 + x.5.9 + x.6.9 + x.7.9 + x.8.9
       + x.10.9 + x.11.9 + x.12.9 + x.13.9 + x.14.9 + x.15.9  = 1
 c35:  x.0.10 + x.1.10 + x.2.10 + x.3.10 + x.4.10 + x.5.10 + x.6.10 + x.7.10
       + x.8.10 + x.9.10 + x.11.10 + x.12.10 + x.13.10 + x.14.10 + x.15.10  = 1
 c36:  x.0.12 + x.1.12 + x.2.12 + x.3.12 + x.4.12 + x.5.12 + x.6.12 + x.7.12
       + x.8.12 + x.9.12 + x.10.12 + x.11.12 + x.13.12 + x.14.12 + x.15.12  = 1
 c37:  x.0.14 + x.1.14 + x.2.14 + x.3.14 + x.4.14 + x.5.14 + x.6.14 + x.7.14
       + x.8.14 + x.9.14 + x.10.14 + x.11.14 + x.12.14 + x.13.14 + x.15.14  = 1
 c38:  x.0.15 + x.1.15 + x.2.15 + x.3.15 + x.4.15 + x.5.15 + x.6.15 + x.7.15
       + x.8.15 + x.9.15 + x.10.15 + x.11.15 + x.12.15 + x.13.15 + x.14.15  = 1
 c39:  x.0.1 + x.0.2 + x.0.3 + x.0.4 + x.0.5 + x.0.6 + x.0.7 + x.0.8 + x.0.9
       + x.0.10 + x.0.11 + x.0.12 + x.0.13 + x.0.14 + x.0.15 - x.1.0 - x.2.0
       - x.3.0 - x.4.0 - x.5.0 - x.6.0 - x.7.0 - x.8.0 - x.9.0 - x.10.0
       - x.11.0 - x.12.0 - x.13.0 - x.14.0 - x.15.0  = 0
 c40:  - x.0.1 - x.2.1 - x.3.1 - x.4.1 - x.5.1 - x.6.1 - x.7.1 - x.8.1 - x.9.1
       - x.10.1 - x.11.1 - x.12.1 - x.13.1 - x.14.1 - x.15.1 + x.1.2 + x.1.3
       + x.1.4 + x.1.5 + x.1.6 + x.1.7 + x.1.8 + x.1.9 + x.1.10 + x.1.11
       + x.1.12 + x.1.13 + x.1.14 + x.1.15 + x.1.0  = 0
 c41:  - x.0.2 + x.2.1 - x.1.2 - x.3.2 - x.4.2 - x.5.2 - x.6.2 - x.7.2 - x.8.2
       - x.9.2 - x.10.2 - x.11.2 - x.12.2 - x.13.2 - x.14.2 - x.15.2 + x.2.3
       + x.2.4 + x.2.5 + x.2.6 + x.2.7 + x.2.8 + x.2.9 + x.2.10 + x.2.11
       + x.2.12 + x.2.13 + x.2.14 + x.2.15 + x.2.0  = 0
 c42:  - x.0.3 + x.3.1 + x.3.2 - x.1.3 - x.2.3 - x.4.3 - x.5.3 - x.6.3 - x.7.3
       - x.8.3 - x.9.3 - x.10.3 - x.11.3 - x.12.3 - x.13.3 - x.14.3 - x.15.3
       + x.3.4 + x.3.5 + x.3.6 + x.3.7 + x.3.8 + x.3.9 + x.3.10 + x.3.11
       + x.3.12 + x.3.13 + x.3.14 + x.3.15 + x.3.0  = 0
 c43:  - x.0.4 + x.4.1 + x.4.2 + x.4.3 - x.1.4 - x.2.4 - x.3.4 - x.5.4 - x.6.4
       - x.7.4 - x.8.4 - x.9.4 - x.10.4 - x.11.4 - x.12.4 - x.13.4 - x.14.4
       - x.15.4 + x.4.5 + x.4.6 + x.4.7 + x.4.8 + x.4.9 + x.4.10 + x.4.11
       + x.4.12 + x.4.13 + x.4.14 + x.4.15 + x.4.0  = 0
 c44:  - x.0.5 + x.5.1 + x.5.2 + x.5.3 + x.5.4 - x.1.5 - x.2.5 - x.3.5 - x.4.5
       - x.6.5 - x.7.5 - x.8.5 - x.9.5 - x.10.5 - x.11.5 - x.12.5 - x.13.5
       - x.14.5 - x.15.5 + x.5.6 + x.5.7 + x.5.8 + x.5.9 + x.5.10 + x.5.11
       + x.5.12 + x.5.13 + x.5.14 + x.5.15 + x.5.0  = 0
 c45:  - x.0.6 + x.6.1 + x.6.2 + x.6.3 + x.6.4 + x.6.5 - x.1.6 - x.2.6 - x.3.6
       - x.4.6 - x.5.6 - x.7.6 - x.8.6 - x.9.6 - x.10.6 - x.11.6 - x.12.6
       - x.13.6 - x.14.6 - x.15.6 + x.6.7 + x.6.8 + x.6.9 + x.6.10 + x.6.11
       + x.6.12 + x.6.13 + x.6.14 + x.6.15 + x.6.0  = 0
 c46:  - x.0.7 + x.7.1 + x.7.2 + x.7.3 + x.7.4 + x.7.5 + x.7.6 - x.1.7 - x.2.7
       - x.3.7 - x.4.7 - x.5.7 - x.6.7 - x.8.7 - x.9.7 - x.10.7 - x.11.7
       - x.12.7 - x.13.7 - x.14.7 - x.15.7 + x.7.8 + x.7.9 + x.7.10 + x.7.11
       + x.7.12 + x.7.13 + x.7.14 + x.7.15 + x.7.0  = 0
 c47:  - x.0.8 + x.8.1 + x.8.2 + x.8.3 + x.8.4 + x.8.5 + x.8.6 + x.8.7 - x.1.8
       - x.2.8 - x.3.8 - x.4.8 - x.5.8 - x.6.8 - x.7.8 - x.9.8 - x.10.8
       - x.11.8 - x.12.8 - x.13.8 - x.14.8 - x.15.8 + x.8.9 + x.8.10 + x.8.11
       + x.8.12 + x.8.13 + x.8.14 + x.8.15 + x.8.0  = 0
 c48:  - x.0.9 + x.9.1 + x.9.2 + x.9.3 + x.9.4 + x.9.5 + x.9.6 + x.9.7 + x.9.8
       - x.1.9 - x.2.9 - x.3.9 - x.4.9 - x.5.9 - x.6.9 - x.7.9 - x.8.9 - x.10.9
       - x.11.9 - x.12.9 - x.13.9 - x.14.9 - x.15.9 + x.9.10 + x.9.11 + x.9.12
       + x.9.13 + x.9.14 + x.9.15 + x.9.0  = 0
 c49:  - x.0.10 + x.10.1 + x.10.2 + x.10.3 + x.10.4 + x.10.5 + x.10.6 + x.10.7
       + x.10.8 + x.10.9 - x.1.10 - x.2.10 - x.3.10 - x.4.10 - x.5.10 - x.6.10
       - x.7.10 - x.8.10 - x.9.10 - x.11.10 - x.12.10 - x.13.10 - x.14.10
       - x.15.10 + x.10.11 + x.10.12 + x.10.13 + x.10.14 + x.10.15 + x.10.0
        = 0
 c50:  - x.0.11 + x.11.1 + x.11.2 + x.11.3 + x.11.4 + x.11.5 + x.11.6 + x.11.7
       + x.11.8 + x.11.9 + x.11.10 - x.1.11 - x.2.11 - x.3.11 - x.4.11 - x.5.11
       - x.6.11 - x.7.11 - x.8.11 - x.9.11 - x.10.11 - x.12.11 - x.13.11
       - x.14.11 - x.15.11 + x.11.12 + x.11.13 + x.11.14 + x.11.15 + x.11.0
        = 0
 c51:  - x.0.12 + x.12.1 + x.12.2 + x.12.3 + x.12.4 + x.12.5 + x.12.6 + x.12.7
       + x.12.8 + x.12.9 + x.12.10 + x.12.11 - x.1.12 - x.2.12 - x.3.12
       - x.4.12 - x.5.12 - x.6.12 - x.7.12 - x.8.12 - x.9.12 - x.10.12
       - x.11.12 - x.13.12 - x.14.12 - x.15.12 + x.12.13 + x.12.14 + x.12.15
       + x.12.0  = 0
 c52:  - x.0.13 + x.13.1 + x.13.2 + x.13.3 + x.13.4 + x.13.5 + x.13.6 + x.13.7
       + x.13.8 + x.13.9 + x.13.10 + x.13.11 + x.13.12 - x.1.13 - x.2.13
       - x.3.13 - x.4.13 - x.5.13 - x.6.13 - x.7.13 - x.8.13 - x.9.13 - x.10.13
       - x.11.13 - x.12.13 - x.14.13 - x.15.13 + x.13.14 + x.13.15 + x.13.0
        = 0
 c53:  - x.0.14 + x.14.1 + x.14.2 + x.14.3 + x.14.4 + x.14.5 + x.14.6 + x.14.7
       + x.14.8 + x.14.9 + x.14.10 + x.14.11 + x.14.12 + x.14.13 - x.1.14
       - x.2.14 - x.3.14 - x.4.14 - x.5.14 - x.6.14 - x.7.14 - x.8.14 - x.9.14
       - x.10.14 - x.11.14 - x.12.14 - x.13.14 - x.15.14 + x.14.15 + x.14.0
        = 0
 c54:  - x.0.15 + x.15.1 + x.15.2 + x.15.3 + x.15.4 + x.15.5 + x.15.6 + x.15.7
       + x.15.8 + x.15.9 + x.15.10 + x.15.11 + x.15.12 + x.15.13 + x.15.14
       - x.1.15 - x.2.15 - x.3.15 - x.4.15 - x.5.15 - x.6.15 - x.7.15 - x.8.15
       - x.9.15 - x.10.15 - x.11.15 - x.12.15 - x.13.15 - x.14.15 + x.15.0  = 0
 c55:  v.0  = 0
 c56:  v.1 - 1026 x.0.1 - v.0 >= -999
 c57:  v.2 - 1006 x.0.2 - v.0 >= -999
 c58:  v.3 - 1032 x.0.3 - v.0 >= -999
 c59:  v.4 - 1030 x.0.4 - v.0 >= -999
 c60:  v.5 - 1007 x.0.5 - v.0 >= -999
 c61:  v.6 - 1047 x.0.6 - v.0 >= -999
 c62:  v.7 - 1014 x.0.7 - v.0 >= -999
 c63:  v.8 - 1039 x.0.8 - v.0 >= -999
 c64:  v.9 - 1045 x.0.9 - v.0 >= -999
 c65:  v.10 - 1030 x.0.10 - v.0 >= -999
 c66:  v.11 - 1014 x.0.11 - v.0 >= -999
 c67:  v.12 - 1028 x.0.12 - v.0 >= -999
 c68:  v.13 - 1032 x.0.13 - v.0 >= -999
 c69:  v.14 - 1029 x.0.14 - v.0 >= -999
 c70:  v.15 - 1016 x.0.15 - v.0 >= -999
 c71:  - v.1 + v.2 - 1019 x.1.2 >= -999
 c72:  - v.1 + v.3 - 1006 x.1.3 >= -999
 c73:  - v.1 + v.4 - 1008 x.1.4 >= -999
 c74:  - v.1 + v.5 - 1018 x.1.5 >= -999
 c75:  - v.1 + v.6 - 1021 x.1.6 >= -999
 c76:  - v.1 + v.7 - 1011 x.1.7 >= -999
 c77:  - v.1 + v.8 - 1017 x.1.8 >= -999
 c78:  - v.1 + v.9 - 1019 x.1.9 >= -999
 c79:  - v.1 + v.10 - 1004 x.1.10 >= -999
 c80:  - v.1 + v.11 - 1029 x.1.11 >= -999
 c81:  - v.1 + v.12 - 1010 x.1.12 >= -999
 c82:  - v.1 + v.13 - 1006 x.1.13 >= -999
 c83:  - v.1 + v.14 - 1007 x.1.14 >= -999
 c84:  - v.1 + v.15 - 1015 x.1.15 >= -999
 c85:  v.1 - v.2 - 1019 x.2.1 >= -999
 c86:  - v.2 + v.3 - 1026 x.2.3 >= -999
 c87:  - v.2 + v.4 - 1026 x.2.4 >= -999
 c88:  - v.2 + v.5 - 1002 x.2.5 >= -999
 c89:  - v.2 + v.6 - 1040 x.2.6 >= -999
 c90:  - v.2 + v.7 - 1018 x.2.7 >= -999
 c91:  - v.2 + v.8 - 1032 x.2.8 >= -999
 c92:  - v.2 + v.9 - 1039 x.2.9 >= -999
 c93:  - v.2 + v.10 - 1024 x.2.10 >= -999
 c94:  - v.2 + v.11 - 1011 x.2.11 >= -999
 c95:  - v.2 + v.12 - 1021 x.2.12 >= -999
 c96:  - v.2 + v.13 - 1025 x.2.13 >= -999
 c97:  - v.2 + v.14 - 1026 x.2.14 >= -999
 c98:  - v.2 + v.15 - 1009 x.2.15 >= -999
 c99:  v.1 - v.3 - 1006 x.3.1 >= -999
 c100: v.2 - v.3 - 1026 x.3.2 >= -999
 c101: - v.3 + v.4 - 1011 x.3.4 >= -999
 c102: - v.3 + v.5 - 1024 x.3.5 >= -999
 c103: - v.3 + v.6 - 1014 x.3.6 >= -999
 c104: - v.3 + v.7 - 1018 x.3.7 >= -999
 c105: - v.3 + v.8 - 1013 x.3.8 >= -999
 c106: - v.3 + v.9 - 1013 x.3.9 >= -999
 c107: - v.3 + v.10 - 1001 x.3.10 >= -999
 c108: - v.3 + v.11 - 1026 x.3.11 >= -999
 c109: - v.3 + v.12 - 1006 x.3.12 >= -999
 c110: - v.3 + v.13 - 1003 x.3.13 >= -999
 c111: - v.3 + v.14 - 1011 x.3.14 >= -999
 c112: - v.3 + v.15 - 1016 x.3.15 >= -999
 c113: v.1 - v.4 - 1008 x.4.1 >= -999
 c114: v.2 - v.4 - 1026 x.4.2 >= -999
 c115: v.3 - v.4 - 1011 x.4.3 >= -999
 c116: - v.4 + v.5 - 1023 x.4.5 >= -999
 c117: - v.4 + v.6 - 1017 x.4.6 >= -999
 c118: - v.4 + v.7 - 1015 x.4.7 >= -999
 c119: - v.4 + v.8 - 1025 x.4.8 >= -999
 c120: - v.4 + v.9 - 1018 x.4.9 >= -999
 c121: - v.4 + v.10 - 1011 x.4.10 >= -999
 c122: - v.4 + v.11 - 1037 x.4.11 >= -999
 c123: - v.4 + v.12 - 1018 x.4.12 >= -999
 c124: - v.4 + v.13 - 1015 x.4.13 >= -999
 c125: - v.4 + v.14 - 1001 x.4.14 >= -999
 c126: - v.4 + v.15 - 1023 x.4.15 >= -999
 c127: v.1 - v.5 - 1018 x.5.1 >= -999
 c128: v.2 - v.5 - 1002 x.5.2 >= -999
 c129: v.3 - v.5 - 1024 x.5.3 >= -999
 c130: v.4 - v.5 - 1023 x.5.4 >= -999
 c131: - v.5 + v.6 - 1039 x.5.6 >= -999
 c132: - v.5 + v.7 - 1015 x.5.7 >= -999
 c133: - v.5 + v.8 - 1031 x.5.8 >= -999
 c134: - v.5 + v.9 - 1037 x.5.9 >= -999
 c135: - v.5 + v.10 - 1022 x.5.10 >= -999
 c136: - v.5 + v.11 - 1014 x.5.11 >= -999
 c137: - v.5 + v.12 - 1020 x.5.12 >= -999
 c138: - v.5 + v.13 - 1024 x.5.13 >= -999
 c139: - v.5 + v.14 - 1023 x.5.14 >= -999
 c140: - v.5 + v.15 - 1008 x.5.15 >= -999
 c141: v.1 - v.6 - 1021 x.6.1 >= -999
 c142: v.2 - v.6 - 1040 x.6.2 >= -999
 c143: v.3 - v.6 - 1014 x.6.3 >= -999
 c144: v.4 - v.6 - 1017 x.6.4 >= -999
 c145: v.5 - v.6 - 1039 x.6.5 >= -999
 c146: - v.6 + v.7 - 1032 x.6.7 >= -999
 c147: - v.6 + v.8 - 1008 x.6.8 >= -999
 c148: - v.6 + v.9 - 1001 x.6.9 >= -999
 c149: - v.6 + v.10 - 1016 x.6.10 >= -999
 c150: - v.6 + v.11 - 1032 x.6.11 >= -999
 c151: - v.6 + v.12 - 1018 x.6.12 >= -999
 c152: - v.6 + v.13 - 1015 x.6.13 >= -999
 c153: - v.6 + v.14 - 1018 x.6.14 >= -999
 c154: - v.6 + v.15 - 1031 x.6.15 >= -999
 c155: v.1 - v.7 - 1011 x.7.1 >= -999
 c156: v.2 - v.7 - 1018 x.7.2 >= -999
 c157: v.3 - v.7 - 1018 x.7.3 >= -999
 c158: v.4 - v.7 - 1015 x.7.4 >= -999
 c159: v.5 - v.7 - 1015 x.7.5 >= -999
 c160: v.6 - v.7 - 1032 x.7.6 >= -999
 c161: - v.7 + v.8 - 1024 x.7.8 >= -999
 c162: - v.7 + v.9 - 1031 x.7.9 >= -999
 c163: - v.7 + v.10 - 1016 x.7.10 >= -999
 c164: - v.7 + v.11 - 1029 x.7.11 >= -999
 c165: - v.7 + v.12 - 1013 x.7.12 >= -999
 c166: - v.7 + v.13 - 1017 x.7.13 >= -999
 c167: - v.7 + v.14 - 1014 x.7.14 >= -999
 c168: - v.7 + v.15 - 1015 x.7.15 >= -999
 c169: v.1 - v.8 - 1017 x.8.1 >= -999
 c170: v.2 - v.8 - 1032 x.8.2 >= -999
 c171: v.3 - v.8 - 1013 x.8.3 >= -999
 c172: v.4 - v.8 - 1025 x.8.4 >= -999
 c173: v.5 - v.8 - 1031 x.8.5 >= -999
 c174: v.6 - v.8 - 1008 x.8.6 >= -999
 c175: v.7 - v.8 - 1024 x.8.7 >= -999
 c176: - v.8 + v.9 - 1007 x.8.9 >= -999
 c177: - v.8 + v.10 - 1013 x.8.10 >= -999
 c178: - v.8 + v.11 - 1024 x.8.11 >= -999
 c179: - v.8 + v.12 - 1010 x.8.12 >= -999
 c180: - v.8 + v.13 - 1010 x.8.13 >= -999
 c181: - v.8 + v.14 - 1024 x.8.14 >= -999
 c182: - v.8 + v.15 - 1023 x.8.15 >= -999
 c183: v.1 - v.9 - 1019 x.9.1 >= -999
 c184: v.2 - v.9 - 1039 x.9.2 >= -999
 c185: v.3 - v.9 - 1013 x.9.3 >= -999
 c186: v.4 - v.9 - 1018 x.9.4 >= -999
 c187: v.5 - v.9 - 1037 x.9.5 >= -999
 c188: v.6 - v.9 - 1001 x.9.6 >= -999
 c189: v.7 - v.9 - 1031 x.9.7 >= -999
 c190: v.8 - v.9 - 1007 x.9.8 >= -999
 c191: - v.9 + v.10 - 1015 x.9.10 >= -999
 c192: - v.9 + v.11 - 1031 x.9.11 >= -999
 c193: - v.9 + v.12 - 1017 x.9.12 >= -999
 c194: - v.9 + v.13 - 1013 x.9.13 >= -999
 c195: - v.9 + v.14 - 1017 x.9.14 >= -999
 c196: - v.9 + v.15 - 1029 x.9.15 >= -999
 c197: v.1 - v.10 - 1004 x.10.1 >= -999
 c198: v.2 - v.10 - 1024 x.10.2 >= -999
 c199: v.3 - v.10 - 1001 x.10.3 >= -999
 c200: v.4 - v.10 - 1011 x.10.4 >= -999
 c201: v.5 - v.10 - 1022 x.10.5 >= -999
 c202: v.6 - v.10 - 1016 x.10.6 >= -999
 c203: v.7 - v.10 - 1016 x.10.7 >= -999
 c204: v.8 - v.10 - 1013 x.10.8 >= -999
 c205: v.9 - v.10 - 1015 x.10.9 >= -999
 c206: - v.10 + v.11 - 1026 x.10.11 >= -999
 c207: - v.10 + v.12 - 1006 x.10.12 >= -999
 c208: - v.10 + v.13 - 1003 x.10.13 >= -999
 c209: - v.10 + v.14 - 1011 x.10.14 >= -999
 c210: - v.10 + v.15 - 1014 x.10.15 >= -999
 c211: v.1 - v.11 - 1029 x.11.1 >= -999
 c212: v.2 - v.11 - 1011 x.11.2 >= -999
 c213: v.3 - v.11 - 1026 x.11.3 >= -999
 c214: v.4 - v.11 - 1037 x.11.4 >= -999
 c215: v.5 - v.11 - 1014 x.11.5 >= -999
 c216: v.6 - v.11 - 1032 x.11.6 >= -999
 c217: v.7 - v.11 - 1029 x.11.7 >= -999
 c218: v.8 - v.11 - 1024 x.11.8 >= -999
 c219: v.9 - v.11 - 1031 x.11.9 >= -999
 c220: v.10 - v.11 - 1026 x.11.10 >= -999
 c221: - v.11 + v.12 - 1019 x.11.12 >= -999
 c222: - v.11 + v.13 - 1022 x.11.13 >= -999
 c223: - v.11 + v.14 - 1037 x.11.14 >= -999
 c224: - v.11 + v.15 - 1014 x.11.15 >= -999
 c225: v.1 - v.12 - 1010 x.12.1 >= -999
 c226: v.2 - v.12 - 1021 x.12.2 >= -999
 c227: v.3 - v.12 - 1006 x.12.3 >= -999
 c228: v.4 - v.12 - 1018 x.12.4 >= -999
 c229: v.5 - v.12 - 1020 x.12.5 >= -999
 c230: v.6 - v.12 - 1018 x.12.6 >= -999
 c231: v.7 - v.12 - 1013 x.12.7 >= -999
 c232: v.8 - v.12 - 1010 x.12.8 >= -999
 c233: v.9 - v.12 - 1017 x.12.9 >= -999
 c234: v.10 - v.12 - 1006 x.12.10 >= -999
 c235: v.11 - v.12 - 1019 x.12.11 >= -999
 c236: - v.12 + v.13 - 1003 x.12.13 >= -999
 c237: - v.12 + v.14 - 1017 x.12.14 >= -999
 c238: - v.12 + v.15 - 1012 x.12.15 >= -999
 c239: v.1 - v.13 - 1006 x.13.1 >= -999
 c240: v.2 - v.13 - 1025 x.13.2 >= -999
 c241: v.3 - v.13 - 1003 x.13.3 >= -999
 c242: v.4 - v.13 - 1015 x.13.4 >= -999
 c243: v.5 - v.13 - 1024 x.13.5 >= -999
 c244: v.6 - v.13 - 1015 x.13.6 >= -999
 c245: v.7 - v.13 - 1017 x.13.7 >= -999
 c246: v.8 - v.13 - 1010 x.13.8 >= -999
 c247: v.9 - v.13 - 1013 x.13.9 >= -999
 c248: v.10 - v.13 - 1003 x.13.10 >= -999
 c249: v.11 - v.13 - 1022 x.13.11 >= -999
 c250: v.12 - v.13 - 1003 x.13.12 >= -999
 c251: - v.13 + v.14 - 1014 x.13.14 >= -999
 c252: - v.13 + v.15 - 1015 x.13.15 >= -999
 c253: v.1 - v.14 - 1007 x.14.1 >= -999
 c254: v.2 - v.14 - 1026 x.14.2 >= -999
 c255: v.3 - v.14 - 1011 x.14.3 >= -999
 c256: v.4 - v.14 - 1001 x.14.4 >= -999
 c257: v.5 - v.14 - 1023 x.14.5 >= -999
 c258: v.6 - v.14 - 1018 x.14.6 >= -999
 c259: v.7 - v.14 - 1014 x.14.7 >= -999
 c260: v.8 - v.14 - 1024 x.14.8 >= -999
 c261: v.9 - v.14 - 1017 x.14.9 >= -999
 c262: v.10 - v.14 - 1011 x.14.10 >= -999
 c263: v.11 - v.14 - 1037 x.14.11 >= -999
 c264: v.12 - v.14 - 1017 x.14.12 >= -999
 c265: v.13 - v.14 - 1014 x.14.13 >= -999
 c266: - v.14 + v.15 - 1023 x.14.15 >= -999
 c267: v.1 - v.15 - 1015 x.15.1 >= -999
 c268: v.2 - v.15 - 1009 x.15.2 >= -999
 c269: v.3 - v.15 - 1016 x.15.3 >= -999
 c270: v.4 - v.15 - 1023 x.15.4 >= -999
 c271: v.5 - v.15 - 1008 x.15.5 >= -999
 c272: v.6 - v.15 - 1031 x.15.6 >= -999
 c273: v.7 - v.15 - 1015 x.15.7 >= -999
 c274: v.8 - v.15 - 1023 x.15.8 >= -999
 c275: v.9 - v.15 - 1029 x.15.9 >= -999
 c276: v.10 - v.15 - 1014 x.15.10 >= -999
 c277: v.11 - v.15 - 1014 x.15.11 >= -999
 c278: v.12 - v.15 - 1012 x.15.12 >= -999
 c279: v.13 - v.15 - 1015 x.15.13 >= -999
 c280: v.14 - v.15 - 1023 x.15.14 >= -999
 c281: a.1 + 1.33333333333333 z1.1 <= 1.33333333333333
 c282: a.2 + 1.66666666666667 z1.2 <= 1.66666666666667
 c283: a.7 + 3.33333333333333 z1.7 <= 3.33333333333333
 c284: a.13 + 5.33333333333333 z1.13 <= 5.33333333333333
 c285: - a.1 - 0.666666666666667 z1.1 <= -0.333333333333333
 c286: - a.2 - 0.333333333333333 z1.1 - z1.2 <= -0.666666666666667
 c287: - a.7 - 0.333333333333333 z1.3 - 0.333333333333333 z1.4
       - 0.333333333333333 z1.5 - 0.333333333333333 z1.6
       - 0.333333333333333 z1.1 - 0.333333333333333 z1.2
       - 2.66666666666667 z1.7 <= -2.33333333333333
 c288: - a.13 - 0.333333333333333 z1.11 - 0.333333333333333 z1.3
       - 0.333333333333333 z1.4 - 0.333333333333333 z1.5
       - 0.333333333333333 z1.6 - 0.333333333333333 z1.8
       - 0.333333333333333 z1.9 - 0.333333333333333 z1.10
       - 0.333333333333333 z1.12 - 0.333333333333333 z1.1
       - 0.333333333333333 z1.2 - 0.333333333333333 z1.7
       - 4.66666666666667 z1.13 <= -4.33333333333333
Bounds
      a.1 >= 0
      a.2 >= 0
      a.7 >= 0
      a.13 >= 0
 0 <= z1.11 <= 1
 0 <= z1.3 <= 1
 0 <= z1.4 <= 1
 0 <= z1.5 <= 1
 0 <= z1.6 <= 1
 0 <= z1.8 <= 1
 0 <= z1.9 <= 1
 0 <= z1.10 <= 1
 0 <= z1.12 <= 1
 0 <= z1.14 <= 1
 0 <= z1.15 <= 1
 0 <= x.0.1 <= 1
 0 <= x.0.2 <= 1
 0 <= x.0.3 <= 1
 0 <= x.0.4 <= 1
 0 <= x.0.5 <= 1
 0 <= x.0.6 <= 1
 0 <= x.0.7 <= 1
 0 <= x.0.8 <= 1
 0 <= x.0.9 <= 1
 0 <= x.0.10 <= 1
 0 <= x.0.11 <= 1
 0 <= x.0.12 <= 1
 0 <= x.0.13 <= 1
 0 <= x.0.14 <= 1
 0 <= x.0.15 <= 1
 0 <= x.2.1 <= 1
 0 <= x.3.1 <= 1
 0 <= x.4.1 <= 1
 0 <= x.5.1 <= 1
 0 <= x.6.1 <= 1
 0 <= x.7.1 <= 1
 0 <= x.8.1 <= 1
 0 <= x.9.1 <= 1
 0 <= x.10.1 <= 1
 0 <= x.11.1 <= 1
 0 <= x.12.1 <= 1
 0 <= x.13.1 <= 1
 0 <= x.14.1 <= 1
 0 <= x.15.1 <= 1
 0 <= z1.1 <= 1
 0 <= x.1.2 <= 1
 0 <= x.3.2 <= 1
 0 <= x.4.2 <= 1
 0 <= x.5.2 <= 1
 0 <= x.6.2 <= 1
 0 <= x.7.2 <= 1
 0 <= x.8.2 <= 1
 0 <= x.9.2 <= 1
 0 <= x.10.2 <= 1
 0 <= x.11.2 <= 1
 0 <= x.12.2 <= 1
 0 <= x.13.2 <= 1
 0 <= x.14.2 <= 1
 0 <= x.15.2 <= 1
 0 <= z1.2 <= 1
 0 <= x.1.3 <= 1
 0 <= x.2.3 <= 1
 0 <= x.4.3 <= 1
 0 <= x.5.3 <= 1
 0 <= x.6.3 <= 1
 0 <= x.7.3 <= 1
 0 <= x.8.3 <= 1
 0 <= x.9.3 <= 1
 0 <= x.10.3 <= 1
 0 <= x.11.3 <= 1
 0 <= x.12.3 <= 1
 0 <= x.13.3 <= 1
 0 <= x.14.3 <= 1
 0 <= x.15.3 <= 1
 0 <= x.1.4 <= 1
 0 <= x.2.4 <= 1
 0 <= x.3.4 <= 1
 0 <= x.5.4 <= 1
 0 <= x.6.4 <= 1
 0 <= x.7.4 <= 1
 0 <= x.8.4 <= 1
 0 <= x.9.4 <= 1
 0 <= x.10.4 <= 1
 0 <= x.11.4 <= 1
 0 <= x.12.4 <= 1
 0 <= x.13.4 <= 1
 0 <= x.14.4 <= 1
 0 <= x.15.4 <= 1
 0 <= x.1.5 <= 1
 0 <= x.2.5 <= 1
 0 <= x.3.5 <= 1
 0 <= x.4.5 <= 1
 0 <= x.6.5 <= 1
 0 <= x.7.5 <= 1
 0 <= x.8.5 <= 1
 0 <= x.9.5 <= 1
 0 <= x.10.5 <= 1
 0 <= x.11.5 <= 1
 0 <= x.12.5 <= 1
 0 <= x.13.5 <= 1
 0 <= x.14.5 <= 1
 0 <= x.15.5 <= 1
 0 <= x.1.6 <= 1
 0 <= x.2.6 <= 1
 0 <= x.3.6 <= 1
 0 <= x.4.6 <= 1
 0 <= x.5.6 <= 1
 0 <= x.7.6 <= 1
 0 <= x.8.6 <= 1
 0 <= x.9.6 <= 1
 0 <= x.10.6 <= 1
 0 <= x.11.6 <= 1
 0 <= x.12.6 <= 1
 0 <= x.13.6 <= 1
 0 <= x.14.6 <= 1
 0 <= x.15.6 <= 1
 0 <= x.1.7 <= 1
 0 <= x.2.7 <= 1
 0 <= x.3.7 <= 1
 0 <= x.4.7 <= 1
 0 <= x.5.7 <= 1
 0 <= x.6.7 <= 1
 0 <= x.8.7 <= 1
 0 <= x.9.7 <= 1
 0 <= x.10.7 <= 1
 0 <= x.11.7 <= 1
 0 <= x.12.7 <= 1
 0 <= x.13.7 <= 1
 0 <= x.14.7 <= 1
 0 <= x.15.7 <= 1
 0 <= z1.7 <= 1
 0 <= x.1.8 <= 1
 0 <= x.2.8 <= 1
 0 <= x.3.8 <= 1
 0 <= x.4.8 <= 1
 0 <= x.5.8 <= 1
 0 <= x.6.8 <= 1
 0 <= x.7.8 <= 1
 0 <= x.9.8 <= 1
 0 <= x.10.8 <= 1
 0 <= x.11.8 <= 1
 0 <= x.12.8 <= 1
 0 <= x.13.8 <= 1
 0 <= x.14.8 <= 1
 0 <= x.15.8 <= 1
 0 <= x.1.9 <= 1
 0 <= x.2.9 <= 1
 0 <= x.3.9 <= 1
 0 <= x.4.9 <= 1
 0 <= x.5.9 <= 1
 0 <= x.6.9 <= 1
 0 <= x.7.9 <= 1
 0 <= x.8.9 <= 1
 0 <= x.10.9 <= 1
 0 <= x.11.9 <= 1
 0 <= x.12.9 <= 1
 0 <= x.13.9 <= 1
 0 <= x.14.9 <= 1
 0 <= x.15.9 <= 1
 0 <= x.1.10 <= 1
 0 <= x.2.10 <= 1
 0 <= x.3.10 <= 1
 0 <= x.4.10 <= 1
 0 <= x.5.10 <= 1
 0 <= x.6.10 <= 1
 0 <= x.7.10 <= 1
 0 <= x.8.10 <= 1
 0 <= x.9.10 <= 1
 0 <= x.11.10 <= 1
 0 <= x.12.10 <= 1
 0 <= x.13.10 <= 1
 0 <= x.14.10 <= 1
 0 <= x.15.10 <= 1
 0 <= x.1.11 <= 1
 0 <= x.2.11 <= 1
 0 <= x.3.11 <= 1
 0 <= x.4.11 <= 1
 0 <= x.5.11 <= 1
 0 <= x.6.11 <= 1
 0 <= x.7.11 <= 1
 0 <= x.8.11 <= 1
 0 <= x.9.11 <= 1
 0 <= x.10.11 <= 1
 0 <= x.12.11 <= 1
 0 <= x.13.11 <= 1
 0 <= x.14.11 <= 1
 0 <= x.15.11 <= 1
 0 <= x.1.12 <= 1
 0 <= x.2.12 <= 1
 0 <= x.3.12 <= 1
 0 <= x.4.12 <= 1
 0 <= x.5.12 <= 1
 0 <= x.6.12 <= 1
 0 <= x.7.12 <= 1
 0 <= x.8.12 <= 1
 0 <= x.9.12 <= 1
 0 <= x.10.12 <= 1
 0 <= x.11.12 <= 1
 0 <= x.13.12 <= 1
 0 <= x.14.12 <= 1
 0 <= x.15.12 <= 1
 0 <= x.1.13 <= 1
 0 <= x.2.13 <= 1
 0 <= x.3.13 <= 1
 0 <= x.4.13 <= 1
 0 <= x.5.13 <= 1
 0 <= x.6.13 <= 1
 0 <= x.7.13 <= 1
 0 <= x.8.13 <= 1
 0 <= x.9.13 <= 1
 0 <= x.10.13 <= 1
 0 <= x.11.13 <= 1
 0 <= x.12.13 <= 1
 0 <= x.14.13 <= 1
 0 <= x.15.13 <= 1
 0 <= z1.13 <= 1
 0 <= x.1.14 <= 1
 0 <= x.2.14 <= 1
 0 <= x.3.14 <= 1
 0 <= x.4.14 <= 1
 0 <= x.5.14 <= 1
 0 <= x.6.14 <= 1
 0 <= x.7.14 <= 1
 0 <= x.8.14 <= 1
 0 <= x.9.14 <= 1
 0 <= x.10.14 <= 1
 0 <= x.11.14 <= 1
 0 <= x.12.14 <= 1
 0 <= x.13.14 <= 1
 0 <= x.15.14 <= 1
 0 <= x.1.15 <= 1
 0 <= x.2.15 <= 1
 0 <= x.3.15 <= 1
 0 <= x.4.15 <= 1
 0 <= x.5.15 <= 1
 0 <= x.6.15 <= 1
 0 <= x.7.15 <= 1
 0 <= x.8.15 <= 1
 0 <= x.9.15 <= 1
 0 <= x.10.15 <= 1
 0 <= x.11.15 <= 1
 0 <= x.12.15 <= 1
 0 <= x.13.15 <= 1
 0 <= x.14.15 <= 1
 0 <= x.1.0 <= 1
 0 <= x.2.0 <= 1
 0 <= x.3.0 <= 1
 0 <= x.4.0 <= 1
 0 <= x.5.0 <= 1
 0 <= x.6.0 <= 1
 0 <= x.7.0 <= 1
 0 <= x.8.0 <= 1
 0 <= x.9.0 <= 1
 0 <= x.10.0 <= 1
 0 <= x.11.0 <= 1
 0 <= x.12.0 <= 1
 0 <= x.13.0 <= 1
 0 <= x.14.0 <= 1
 0 <= x.15.0 <= 1
Binaries
 z1.11  z1.3  z1.4  z1.5  z1.6  z1.8  z1.9  z1.10  z1.12  z1.14  z1.15  x.0.1 
 x.0.2  x.0.3  x.0.4  x.0.5  x.0.6  x.0.7  x.0.8  x.0.9  x.0.10  x.0.11 
 x.0.12  x.0.13  x.0.14  x.0.15  x.2.1  x.3.1  x.4.1  x.5.1  x.6.1  x.7.1 
 x.8.1  x.9.1  x.10.1  x.11.1  x.12.1  x.13.1  x.14.1  x.15.1  z1.1  x.1.2 
 x.3.2  x.4.2  x.5.2  x.6.2  x.7.2  x.8.2  x.9.2  x.10.2  x.11.2  x.12.2 
 x.13.2  x.14.2  x.15.2  z1.2  x.1.3  x.2.3  x.4.3  x.5.3  x.6.3  x.7.3  x.8.3 
 x.9.3  x.10.3  x.11.3  x.12.3  x.13.3  x.14.3  x.15.3  x.1.4  x.2.4  x.3.4 
 x.5.4  x.6.4  x.7.4  x.8.4  x.9.4  x.10.4  x.11.4  x.12.4  x.13.4  x.14.4 
 x.15.4  x.1.5  x.2.5  x.3.5  x.4.5  x.6.5  x.7.5  x.8.5  x.9.5  x.10.5 
 x.11.5  x.12.5  x.13.5  x.14.5  x.15.5  x.1.6  x.2.6  x.3.6  x.4.6  x.5.6 
 x.7.6  x.8.6  x.9.6  x.10.6  x.11.6  x.12.6  x.13.6  x.14.6  x.15.6  x.1.7 
 x.2.7  x.3.7  x.4.7  x.5.7  x.6.7  x.8.7  x.9.7  x.10.7  x.11.7  x.12.7 
 x.13.7  x.14.7  x.15.7  z1.7  x.1.8  x.2.8  x.3.8  x.4.8  x.5.8  x.6.8  x.7.8 
 x.9.8  x.10.8  x.11.8  x.12.8  x.13.8  x.14.8  x.15.8  x.1.9  x.2.9  x.3.9 
 x.4.9  x.5.9  x.6.9  x.7.9  x.8.9  x.10.9  x.11.9  x.12.9  x.13.9  x.14.9 
 x.15.9  x.1.10  x.2.10  x.3.10  x.4.10  x.5.10  x.6.10  x.7.10  x.8.10 
 x.9.10  x.11.10  x.12.10  x.13.10  x.14.10  x.15.10  x.1.11  x.2.11  x.3.11 
 x.4.11  x.5.11  x.6.11  x.7.11  x.8.11  x.9.11  x.10.11  x.12.11  x.13.11 
 x.14.11  x.15.11  x.1.12  x.2.12  x.3.12  x.4.12  x.5.12  x.6.12  x.7.12 
 x.8.12  x.9.12  x.10.12  x.11.12  x.13.12  x.14.12  x.15.12  x.1.13  x.2.13 
 x.3.13  x.4.13  x.5.13  x.6.13  x.7.13  x.8.13  x.9.13  x.10.13  x.11.13 
 x.12.13  x.14.13  x.15.13  z1.13  x.1.14  x.2.14  x.3.14  x.4.14  x.5.14 
 x.6.14  x.7.14  x.8.14  x.9.14  x.10.14  x.11.14  x.12.14  x.13.14  x.15.14 
 x.1.15  x.2.15  x.3.15  x.4.15  x.5.15  x.6.15  x.7.15  x.8.15  x.9.15 
 x.10.15  x.11.15  x.12.15  x.13.15  x.14.15  x.1.0  x.2.0  x.3.0  x.4.0 
 x.5.0  x.6.0  x.7.0  x.8.0  x.9.0  x.10.0  x.11.0  x.12.0  x.13.0  x.14.0 
 x.15.0 
Generals
 a.1  a.2  a.7  a.13 
End
